
  22   10
  10   10   10   10   10   10   10   10   10   10

   0   0   0   0   0   0   0   0   0   0   0   2 2 4 
   7   0  10   0   0   0   0   0   0   0   0   1 3 
   4   0   0   0   0  10   0   0   0   0   0   2 6 5 
  10   0   0   0  10   0   0   0   0   0   0   1 5 
   9   0   0   0  10   0   0   0   0   0   0   2 8 7 
   7  10   0   0   0   0   0   0   0   0   0   2 9 8 
   3   0   0   0   0   0   0   0  10   0   0   1 9 
   3   0   0   0   0  10   0   0   0   0   0   3 17 12 11 
   8  10   0   0   0   0   0   0   0   0   0   1 10 
   4  10   0   0   0   0   0   0   0   0   0   2 17 11 
   1   0   0   0   0   0   0  10   0   0   0   1 13 
   4  10   0   0   0   0   0   0   0   0   0   1 13 
   3   0   0   0   0   0   0   0  10   0   0   1 14 
   2   0   0   0   0   0  10   0   0   0   0   1 15 
   7   0   0   0   0   0   0   0   0  10   0   1 16 
   3   0   0   0   0   0  10   0   0   0   0   2 20 18 
   2   0   0   0   0   0   0   0   0   0  10   2 20 18 
   4   0   0   0   0   0   0   0   0   0  10   1 19 
   9  10   0   0   0   0   0   0   0   0   0   1 21 
   5   0   0   0   0   0  10   0   0   0   0   1 21 
   9   0   0   0   0   0   0  10   0   0   0   1 22
   0   0   0   0   0   0   0   0   0   0   0   0 
